db/data/192639384112522385320311244462856319432.z3.out
sat
-------------------
1994.887435223
